c description: Random 5-CNF over 15 variables and 30 clauses
c generator: CNFgen (0.9.0)
c copyright: (C) 2012-2020 Massimo Lauria <massimo.lauria@uniroma1.it>
c url: https://massimolauria.net/cnfgen
c
p cnf 15 30
-1 -5 6 -10 15 0
1 -3 5 -9 13 0
-2 -4 8 -10 14 0
-1 2 -3 4 15 0
-2 -3 -5 -11 15 0
4 6 7 10 11 0
4 5 -10 13 15 0
-1 -6 -10 11 12 0
2 -10 -11 12 13 0
3 4 -5 8 -15 0
8 9 10 13 -14 0
1 2 3 5 -14 0
3 4 -7 -10 15 0
-2 -7 -10 11 -12 0
-3 -8 11 -12 13 0
-1 -4 -6 11 -15 0
-3 -5 -6 -8 15 0
-2 6 -10 11 13 0
-1 -2 -4 -8 -9 0
2 4 6 -9 -15 0
-3 -6 -9 -14 -15 0
1 -2 5 -9 -14 0
-2 5 7 -9 -14 0
-2 -8 -10 11 15 0
1 -6 -9 -10 13 0
-3 -4 -7 14 15 0
-2 -3 -4 -5 12 0
1 -5 12 13 -15 0
2 -5 -7 -10 -13 0
-3 9 10 -11 14 0